qbf_easy_train/easy_189_SAT.qdimacs
p cnf 21 52
a 16 3 0
e 1 2 4 5 6 7 8 9 10 11 12 13 14 15 17 18 19 20 21 0
-3 -1 0
-3 2 0
1 -2 3 0
-3 4 -5 0
3 -4 -5 0
-3 -4 5 0
3 4 5 0
-7 -6 0
-7 4 0
6 -4 7 0
-9 10 -11 0
9 -10 -11 0
-9 -10 11 0
9 10 11 0
3 11 -12 0
-3 -11 -12 0
3 -11 12 0
-3 11 12 0
-8 12 -13 0
8 -12 -13 0
-8 -12 13 0
8 12 13 0
7 -13 -14 0
-7 13 -14 0
7 13 14 0
-7 -13 14 0
-15 -5 0
-15 -14 0
5 14 15 0
16 2 -17 0
-16 -2 -17 0
16 -2 17 0
-16 2 17 0
-18 -17 0
-18 -9 0
17 9 18 0
2 16 -19 0
-2 -16 -19 0
2 -16 19 0
-2 16 19 0
20 18 0
20 19 0
-18 -19 -20 0
-21 -15 0
-21 20 0
15 -20 21 0
-19 -1 9 0
9 -13 -1 -21 17 0
11 -3 -21 -7 -2 -18 0
-14 7 21 2 0
1 5 13 16 3 0
21 0
