sat_easy_train/easy_189_SAT.dimacs
p cnf 89 280
3 -2 0
3 -2 0
2 -3 0
-4 1 0
-4 3 0
-1 -3 4 0
7 5 0
7 -6 0
-5 6 -7 0
8 -4 0
8 -7 0
4 7 -8 0
10 -9 0
10 -5 0
9 5 -10 0
11 10 0
11 -3 0
-10 3 -11 0
-12 9 0
-12 -2 0
-9 2 12 0
-11 12 -13 0
11 -12 -13 0
-11 -12 13 0
11 12 13 0
8 -13 -14 0
-8 13 -14 0
8 13 14 0
-8 -13 14 0
16 2 0
16 -15 0
-2 15 -16 0
18 -16 0
18 17 0
16 -17 -18 0
-19 -16 -20 0
19 16 -20 0
-19 16 20 0
19 -16 20 0
-20 -15 -21 0
20 15 -21 0
-20 15 21 0
20 -15 21 0
-22 1 0
-22 -19 0
-1 19 22 0
-21 22 -23 0
21 -22 -23 0
-21 -22 23 0
21 22 23 0
24 18 0
24 -23 0
-18 23 -24 0
14 24 -25 0
-14 -24 -25 0
14 -24 25 0
-14 24 25 0
-27 -26 0
-27 -10 0
26 10 27 0
27 -1 -28 0
-27 1 -28 0
27 1 28 0
-27 -1 28 0
-30 -29 0
-30 -1 0
29 1 30 0
31 -17 0
31 2 0
17 -2 -31 0
-32 -1 0
-32 31 0
1 -31 32 0
-33 -30 0
-33 32 0
30 -32 33 0
33 26 -34 0
-33 -26 -34 0
33 -26 34 0
-33 26 34 0
-35 29 0
-35 34 0
-29 -34 35 0
-28 35 -36 0
28 -35 -36 0
-28 -35 36 0
28 35 36 0
37 25 0
37 -36 0
-25 36 -37 0
15 4 -38 0
-15 -4 -38 0
15 -4 38 0
-15 4 38 0
-39 32 0
-39 -38 0
-32 38 39 0
-41 -40 0
-41 -17 0
40 17 41 0
43 9 0
43 -42 0
-9 42 -43 0
44 -41 0
44 43 0
41 -43 -44 0
44 -45 -46 0
-44 45 -46 0
44 45 46 0
-44 -45 46 0
-47 -39 0
-47 46 0
39 -46 47 0
-48 -37 0
-48 47 0
37 -47 48 0
31 42 -49 0
-31 -42 -49 0
31 -42 49 0
-31 42 49 0
43 49 -50 0
-43 -49 -50 0
43 -49 50 0
-43 49 50 0
-52 51 0
-52 -6 0
-51 6 52 0
-53 -6 0
-53 38 0
6 -38 53 0
-54 -52 0
-54 53 0
52 -53 54 0
-55 50 0
-55 -54 0
-50 54 55 0
-56 -5 0
-56 -19 0
5 19 56 0
-51 -15 -57 0
51 15 -57 0
-51 15 57 0
51 -15 57 0
58 -42 0
58 -57 0
42 57 -58 0
59 -56 0
59 58 0
56 -58 -59 0
60 55 0
60 -59 0
-55 59 -60 0
-61 -48 0
-61 -60 0
48 60 61 0
-62 9 0
-62 40 0
-9 -40 62 0
-64 41 0
-64 -63 0
-41 63 64 0
65 -62 0
65 64 0
62 -64 -65 0
-6 1 -66 0
6 -1 -66 0
-6 -1 66 0
6 1 66 0
68 -66 0
68 -67 0
66 67 -68 0
69 19 0
69 1 0
-19 -1 -69 0
68 -69 -70 0
-68 69 -70 0
68 69 70 0
-68 -69 70 0
-71 65 0
-71 -70 0
-65 70 71 0
-72 61 0
-72 -71 0
-61 71 72 0
73 -32 0
73 1 0
32 -1 -73 0
74 -10 0
74 -9 0
10 9 -74 0
73 -74 -75 0
-73 74 -75 0
73 74 75 0
-73 -74 75 0
-53 -26 -76 0
53 26 -76 0
-53 26 76 0
53 -26 76 0
77 75 0
77 76 0
-75 -76 -77 0
78 -72 0
78 -77 0
72 77 -78 0
79 -9 0
79 17 0
9 -17 -79 0
16 42 -80 0
-16 -42 -80 0
16 -42 80 0
-16 42 80 0
81 79 0
81 80 0
-79 -80 -81 0
-16 -42 -82 0
16 42 -82 0
-16 42 82 0
16 -42 82 0
83 -82 0
83 20 0
82 -20 -83 0
-84 -81 0
-84 83 0
81 -83 84 0
-43 2 -85 0
43 -2 -85 0
-43 -2 85 0
43 2 85 0
42 45 -86 0
-42 -45 -86 0
42 -45 86 0
-42 45 86 0
85 -86 -87 0
-85 86 -87 0
85 86 87 0
-85 -86 87 0
-84 87 -88 0
84 -87 -88 0
-84 -87 88 0
84 87 88 0
-89 78 0
-89 -88 0
-78 88 89 0
-65 82 -30 0
1 65 0
-3 76 0
56 9 -21 -77 -35 0
2 3 -34 -67 0
83 4 -78 0
82 49 59 41 -69 15 0
56 -44 -87 -62 1 0
84 31 -88 -25 -29 -65 0
-31 35 63 -58 0
-25 78 1 0
54 -59 -83 0
-89 56 59 -20 25 0
26 13 -31 -39 0
8 30 40 0
-62 73 -19 0
-55 -31 56 0
49 -62 -82 0
-60 -18 66 -86 41 0
25 -69 0
29 -80 -32 0
38 47 5 -43 -36 0
29 -45 -34 48 84 0
73 20 32 11 0
38 79 -65 57 -58 -29 0
53 54 0
-83 75 61 -47 71 23 0
-63 45 -21 -44 -54 0
-2 42 -5 46 0
53 42 -84 52 35 0
-21 42 0
61 54 28 -89 -37 13 0
43 -35 -75 81 -69 0
19 39 5 0
-24 -11 59 -76 -84 0
34 45 -47 65 -18 -6 0
89 0
